
Gurobi 6.5.2 (linux64) logging started Mon Aug 29 10:58:03 2016

Optimize a model with 201 rows, 2575 columns and 5237 nonzeros
Coefficient statistics:
  Matrix range    [1e+00, 2e+00]
  Objective range [2e+00, 1e+02]
  Bounds range    [1e+00, 1e+00]
  RHS range       [1e+00, 1e+00]
Found heuristic solution: objective 5130
Presolve removed 75 rows and 47 columns
Presolve time: 0.01s
Presolved: 126 rows, 2528 columns, 5072 nonzeros
Variable types: 0 continuous, 2528 integer (2528 binary)

Root relaxation: objective 1.096500e+03, 148 iterations, 0.00 seconds

    Nodes    |    Current Node    |     Objective Bounds      |     Work
 Expl Unexpl |  Obj  Depth IntInf | Incumbent    BestBd   Gap | It/Node Time

     0     0 1096.50000    0    8 5130.00000 1096.50000  78.6%     -    0s
H    0     0                    1142.0000000 1096.50000  3.98%     -    0s
H    0     0                    1135.0000000 1096.50000  3.39%     -    0s
H    0     0                    1109.0000000 1096.50000  1.13%     -    0s
     0     0 1107.00000    0   22 1109.00000 1107.00000  0.18%     -    0s
     0     0 1107.00000    0    8 1109.00000 1107.00000  0.18%     -    0s
     0     0     cutoff    0      1109.00000 1108.00111  0.09%     -    0s

Cutting planes:
  Gomory: 4
  Cover: 3
  Clique: 1
  Zero half: 1

Explored 0 nodes (340 simplex iterations) in 0.05 seconds
Thread count was 8 (of 8 available processors)

Optimal solution found (tolerance 1.00e-04)
Best objective 1.109000000000e+03, best bound 1.109000000000e+03, gap 0.0%
